NAME: china34
TYPE: TSP
COMMENT: 34 locations in China
DIMENSION: 34
EDGE_WEIGHT_TYPE: WGS
NODE_COORD_SECTION
1 101.74 36.56
2 103.73 36.03
3 106.27 38.47
4 108.95 34.27
5 113.65 34.76
6 117.00 36.65
7 114.48 38.03
8 112.53 37.87
9 111.65 40.82
10 116.41 39.90
11 117.20 39.08
12 123.38 41.80
13 125.35 43.88
14 126.63 45.75
15 121.47 31.23
16 120.19 30.26
17 118.78 32.04
18 117.27 31.86
19 114.31 30.52
20 113.00 28.21
21 115.89 28.68
22 119.30 26.08
23 121.30 25.03
24 114.17 22.32
25 113.55 22.20
26 113.23 23.16
27 110.35 20.02
28 108.33 22.84
29 106.71 26.57
30 106.55 29.56
31 104.06 30.67
32 102.73 25.04
33 91.11 29.97
34 87.68 43.77
EOF
